# Solution for model r5_t27_m0_9 Batch Number: 3
# Finished Task: 27 / 27
# Makespan: 502.0, Total Distance: 590.0, Total Time: 2.5967
# R O S F Batch
0 0 6 0.0 0.0 -1
1 1 25 0.0 0.0 -1
2 2 19 0.0 0.0 -1
3 3 28 0.0 0.0 -1
4 4 8 0.0 0.0 -1
5 1 -1 445.0 469.0 2
6 0 23 35.0 68.0 0
7 2 30 335.0 369.0 2
8 4 15 52.0 74.0 0
9 2 7 216.0 244.0 0
10 1 17 138.0 176.0 0
11 1 18 310.0 335.0 2
12 3 13 248.0 276.0 1
13 3 -1 306.0 334.0 1
14 4 26 356.0 390.0 2
15 4 21 185.0 207.0 0
16 3 12 181.0 215.0 0
17 1 20 200.0 233.0 0
18 1 5 369.0 407.0 2
19 2 9 149.0 185.0 0
20 1 11 272.0 293.0 1
21 4 22 245.0 272.0 1
22 4 14 307.0 334.0 1
23 0 31 180.0 216.0 0
24 2 -1 450.0 470.0 2
25 1 10 68.0 94.0 0
26 4 -1 402.0 433.0 2
27 0 -1 469.0 502.0 2
28 3 16 152.0 181.0 0
29 0 27 407.0 433.0 2
30 2 24 386.0 412.0 2
31 0 29 316.0 340.0 2
